HFSDDW
15	8	4
0	50	1	29	2	51	3	59
0	62	1	86	2	86	3	30
0	38	1	2	2	99	3	87
0	60	1	14	2	34	3	58
0	57	1	22	2	93	3	78
0	63	1	84	2	42	3	53
0	37	1	14	2	47	3	74
0	4	1	59	2	74	3	7
0	83	1	31	2	93	3	33
0	62	1	2	2	39	3	63
0	38	1	10	2	59	3	46
0	32	1	2	2	53	3	35
0	45	1	95	2	42	3	45
0	60	1	20	2	56	3	65
0	87	1	97	2	22	3	48
LBCmax: 505
RELDUE
-1	372	5	3
-1	289	9	2
-1	330	4	6
-1	494	2	3
-1	335	1	2
-1	534	3	5
-1	267	6	7
-1	341	3	5
-1	315	6	8
-1	257	9	3
-1	545	3	8
-1	421	8	2
-1	504	4	9
-1	346	3	2
-1	375	4	9
DDW
339	405
269	309
320	340
454	534
332	338
507	561
240	294
314	368
287	343
234	280
529	561
383	459
494	514
322	370
338	412
